3 100
0 40.0 50.0 0.0 0.0 0 1236
2 45.0 68.0 90.0 10.0 0 1127
3 45.0 70.0 90.0 30.0 0 1125
4 42.0 66.0 90.0 10.0 0 1129
5 42.0 68.0 90.0 10.0 727 782
6 42.0 65.0 90.0 10.0 0 1130
7 40.0 69.0 90.0 20.0 0 1127
8 40.0 66.0 90.0 20.0 0 1130
9 38.0 68.0 90.0 20.0 255 324
10 38.0 70.0 90.0 10.0 534 605
11 35.0 66.0 90.0 10.0 0 1129
12 35.0 69.0 90.0 10.0 448 505
13 25.0 85.0 90.0 20.0 0 1107
14 22.0 75.0 90.0 30.0 30 92
15 22.0 85.0 90.0 10.0 0 1106
16 20.0 80.0 90.0 40.0 384 429
17 20.0 85.0 90.0 40.0 0 1105
18 18.0 75.0 90.0 20.0 0 1112
19 15.0 75.0 90.0 20.0 0 1110
20 15.0 80.0 90.0 10.0 0 1106
21 30.0 50.0 90.0 10.0 0 1136
22 30.0 52.0 90.0 20.0 0 1135
23 28.0 52.0 90.0 20.0 0 1133
24 28.0 55.0 90.0 10.0 732 777
25 25.0 50.0 90.0 10.0 0 1131
26 25.0 52.0 90.0 40.0 169 224
27 25.0 55.0 90.0 10.0 0 1130
28 23.0 52.0 90.0 10.0 0 1128
29 23.0 55.0 90.0 20.0 0 1128
30 20.0 50.0 90.0 10.0 0 1126
31 20.0 55.0 90.0 10.0 0 1125
32 10.0 35.0 90.0 20.0 0 1112
33 10.0 40.0 90.0 30.0 0 1114
34 8.0 40.0 90.0 40.0 0 1112
35 8.0 45.0 90.0 20.0 0 1113
36 5.0 35.0 90.0 10.0 0 1107
37 5.0 45.0 90.0 10.0 0 1110
38 2.0 40.0 90.0 20.0 0 1106
39 0.0 40.0 90.0 30.0 479 522
40 0.0 45.0 90.0 20.0 0 1105
41 35.0 30.0 90.0 10.0 0 1125
42 35.0 32.0 90.0 10.0 0 1127
43 33.0 32.0 90.0 20.0 0 1126
44 33.0 35.0 90.0 10.0 0 1129
45 32.0 30.0 90.0 10.0 359 412
46 30.0 30.0 90.0 10.0 0 1123
47 30.0 32.0 90.0 30.0 0 1125
48 30.0 35.0 90.0 10.0 0 1127
49 28.0 30.0 90.0 10.0 0 1122
50 28.0 35.0 90.0 10.0 0 1126
51 26.0 32.0 90.0 10.0 0 1123
52 25.0 30.0 90.0 10.0 0 1121
53 25.0 35.0 90.0 10.0 0 1124
54 44.0 5.0 90.0 20.0 286 347
55 42.0 10.0 90.0 40.0 0 1105
56 42.0 15.0 90.0 10.0 95 158
57 40.0 5.0 90.0 30.0 0 1101
58 40.0 15.0 90.0 40.0 0 1111
59 38.0 5.0 90.0 30.0 471 534
60 38.0 15.0 90.0 10.0 0 1110
61 35.0 5.0 90.0 20.0 0 1100
62 50.0 30.0 90.0 10.0 0 1123
63 50.0 35.0 90.0 20.0 262 317
64 50.0 40.0 90.0 50.0 0 1131
65 48.0 30.0 90.0 10.0 0 1124
66 48.0 40.0 90.0 10.0 0 1133
67 47.0 35.0 90.0 10.0 0 1129
68 47.0 40.0 90.0 10.0 12 77
69 45.0 30.0 90.0 10.0 0 1125
70 45.0 35.0 90.0 10.0 916 969
71 95.0 30.0 90.0 30.0 0 1087
72 95.0 35.0 90.0 20.0 0 1088
73 53.0 30.0 90.0 10.0 0 1122
74 92.0 30.0 90.0 10.0 0 1090
75 53.0 35.0 90.0 50.0 353 412
76 45.0 65.0 90.0 20.0 0 1130
77 90.0 35.0 90.0 10.0 203 260
78 88.0 30.0 90.0 10.0 574 643
79 88.0 35.0 90.0 20.0 0 1095
80 87.0 30.0 90.0 10.0 668 731
81 85.0 25.0 90.0 10.0 0 1094
82 85.0 35.0 90.0 30.0 0 1098
83 75.0 55.0 90.0 20.0 0 1110
84 72.0 55.0 90.0 10.0 0 1113
85 70.0 58.0 90.0 20.0 458 523
86 68.0 60.0 90.0 30.0 0 1116
87 66.0 55.0 90.0 10.0 0 1119
88 65.0 55.0 90.0 20.0 85 144
89 65.0 60.0 90.0 30.0 0 1119
90 63.0 58.0 90.0 10.0 0 1121
91 60.0 55.0 90.0 10.0 0 1125
92 60.0 60.0 90.0 10.0 0 1123
93 67.0 85.0 90.0 20.0 368 441
94 65.0 85.0 90.0 40.0 0 1102
95 65.0 82.0 90.0 10.0 0 1105
96 62.0 80.0 90.0 30.0 0 1108
97 60.0 80.0 90.0 10.0 0 1109
98 60.0 85.0 90.0 30.0 0 1105
99 58.0 75.0 90.0 20.0 0 1115
100 55.0 80.0 90.0 10.0 743 820
101 55.0 85.0 90.0 20.0 647 726